NAME : P = NP
TYPE : TSP
DIMENSION : 28
EDGE_WEIGHT_TYPE : EUC_2D
NODE_COORD_SECTION
0 107 741
1 1 354
2 12 140
3 98 27
4 168 162
5 150 144
6 27 358
7 772 200
8 176 404
9 58 366
10 244 60
11 82 562
12 398 354
13 55 55
14 342 151
15 359 193
16 87 1
17 408 374
18 715 161
19 4 308
20 193 5
21 245 536
22 473 505
23 514 383
24 447 226
25 824 35
26 442 34
27 726 53